
Gurobi 7.5.2 (win32, Python) logging started 08/07/18 10:10:53

Academic license - for non-commercial use only

Gurobi 7.5.2 (win32, Python) logging started 08/07/18 10:11:29

Academic license - for non-commercial use only

Gurobi 7.5.2 (win32, Python) logging started 08/07/18 10:13:09

Academic license - for non-commercial use only

Gurobi 7.5.2 (win32, Python) logging started 08/07/18 10:29:16

Academic license - for non-commercial use only

Gurobi 7.5.2 (win32, Python) logging started 08/07/18 22:25:55

Academic license - for non-commercial use only

Gurobi 7.5.2 (win32, Python) logging started 08/07/18 22:29:08

Academic license - for non-commercial use only

Gurobi 7.5.2 (win32, Python) logging started 08/07/18 22:30:14

Academic license - for non-commercial use only

Gurobi 7.5.2 (win32, Python) logging started 08/07/18 22:31:39

Academic license - for non-commercial use only

Gurobi 7.5.2 (win32, Python) logging started 08/07/18 22:35:11

Academic license - for non-commercial use only

Gurobi 7.5.2 (win32, Python) logging started 08/07/18 22:42:41

Academic license - for non-commercial use only

Gurobi 7.5.2 (win32, Python) logging started 08/07/18 22:48:15

Academic license - for non-commercial use only

Gurobi 7.5.2 (win32, Python) logging started 08/07/18 22:55:04

Academic license - for non-commercial use only

Gurobi 7.5.2 (win32, Python) logging started 08/07/18 22:58:31

Academic license - for non-commercial use only

Gurobi 7.5.2 (win32, Python) logging started 08/07/18 23:01:40

Academic license - for non-commercial use only

Gurobi 7.5.2 (win32, Python) logging started 08/07/18 23:04:03

Academic license - for non-commercial use only

Gurobi 7.5.2 (win32, Python) logging started 08/07/18 23:05:51

Academic license - for non-commercial use only

Gurobi 7.5.2 (win32, Python) logging started 08/07/18 23:11:52

Academic license - for non-commercial use only

Gurobi 7.5.2 (win32, Python) logging started 08/07/18 23:13:05

Academic license - for non-commercial use only

Gurobi 7.5.2 (win32, Python) logging started 08/07/18 23:17:53

Academic license - for non-commercial use only

Gurobi 7.5.2 (win32, Python) logging started 08/07/18 23:19:20

Academic license - for non-commercial use only

Gurobi 7.5.2 (win32, Python) logging started 08/07/18 23:20:23

Academic license - for non-commercial use only

Gurobi 7.5.2 (win32, Python) logging started 08/07/18 23:24:49

Academic license - for non-commercial use only

Gurobi 7.5.2 (win32, Python) logging started 08/07/18 23:26:46

Academic license - for non-commercial use only

Gurobi 7.5.2 (win32, Python) logging started 08/07/18 23:26:55

Academic license - for non-commercial use only

Gurobi 7.5.2 (win32, Python) logging started 08/07/18 23:28:24

Academic license - for non-commercial use only

Gurobi 7.5.2 (win32, Python) logging started 08/07/18 23:35:53

Academic license - for non-commercial use only

Gurobi 7.5.2 (win32, Python) logging started 08/07/18 23:37:40

Academic license - for non-commercial use only

Gurobi 7.5.2 (win32, Python) logging started 08/07/18 23:38:03

Academic license - for non-commercial use only

Gurobi 7.5.2 (win32, Python) logging started 08/07/18 23:38:30

Academic license - for non-commercial use only

Gurobi 7.5.2 (win32, Python) logging started 08/07/18 23:41:06

Academic license - for non-commercial use only

Gurobi 7.5.2 (win32, Python) logging started 08/07/18 23:43:56

Academic license - for non-commercial use only

Gurobi 7.5.2 (win32, Python) logging started 08/07/18 23:45:04

Academic license - for non-commercial use only

Gurobi 7.5.2 (win32, Python) logging started 08/07/18 23:45:13

Academic license - for non-commercial use only

Gurobi 7.5.2 (win32, Python) logging started 08/07/18 23:48:38

Academic license - for non-commercial use only

Gurobi 7.5.2 (win32, Python) logging started 08/07/18 23:52:23

Academic license - for non-commercial use only

Gurobi 7.5.2 (win32, Python) logging started 08/07/18 23:53:49

Academic license - for non-commercial use only

Gurobi 7.5.2 (win32, Python) logging started 08/07/18 23:55:02

Academic license - for non-commercial use only

Gurobi 7.5.2 (win32, Python) logging started 08/07/18 23:59:31

Academic license - for non-commercial use only

Gurobi 7.5.2 (win32, Python) logging started 08/08/18 00:00:23

Academic license - for non-commercial use only

Gurobi 7.5.2 (win32, Python) logging started 08/08/18 00:01:50

Academic license - for non-commercial use only

Gurobi 7.5.2 (win32, Python) logging started 08/08/18 00:03:06

Academic license - for non-commercial use only

Gurobi 7.5.2 (win32, Python) logging started 08/08/18 00:04:49

Academic license - for non-commercial use only

Gurobi 7.5.2 (win32, Python) logging started 08/08/18 00:06:22

Academic license - for non-commercial use only

Gurobi 7.5.2 (win32, Python) logging started 08/08/18 00:07:33

Academic license - for non-commercial use only

Gurobi 7.5.2 (win32, Python) logging started 08/08/18 00:12:17

Academic license - for non-commercial use only

Gurobi 7.5.2 (win32, Python) logging started 08/08/18 00:17:54

Academic license - for non-commercial use only

Gurobi 7.5.2 (win32, Python) logging started 08/08/18 00:18:57

Academic license - for non-commercial use only

Gurobi 7.5.2 (win32, Python) logging started 08/08/18 00:23:50

Academic license - for non-commercial use only

Gurobi 7.5.2 (win32, Python) logging started 08/08/18 00:26:34

Academic license - for non-commercial use only

Gurobi 7.5.2 (win32, Python) logging started 08/08/18 00:28:02

Academic license - for non-commercial use only

Gurobi 7.5.2 (win32, Python) logging started 08/08/18 00:30:42

Academic license - for non-commercial use only

Gurobi 7.5.2 (win32, Python) logging started 08/08/18 00:30:54

Academic license - for non-commercial use only

Gurobi 7.5.2 (win32, Python) logging started 08/08/18 00:32:54

Academic license - for non-commercial use only

Gurobi 7.5.2 (win64, Python) logging started 08/08/18 04:36:01

Academic license - for non-commercial use only

Gurobi 7.5.2 (win32, Python) logging started 08/08/18 15:14:33

Academic license - for non-commercial use only

Gurobi 7.5.2 (win32, Python) logging started 08/08/18 15:19:43

Academic license - for non-commercial use only

Gurobi 7.5.2 (win32, Python) logging started 08/08/18 15:38:03

Academic license - for non-commercial use only

Gurobi 7.5.2 (win32, Python) logging started 08/08/18 17:25:02

Academic license - for non-commercial use only

Gurobi 7.5.2 (win32, Python) logging started 08/08/18 17:29:12

Academic license - for non-commercial use only

Gurobi 7.5.2 (win32, Python) logging started 08/08/18 17:30:39

Academic license - for non-commercial use only

Gurobi 7.5.2 (win32, Python) logging started 08/08/18 17:32:22

Academic license - for non-commercial use only

Gurobi 7.5.2 (win32, Python) logging started 08/08/18 17:34:28

Academic license - for non-commercial use only

Gurobi 7.5.2 (win32, Python) logging started 08/08/18 17:37:15

Academic license - for non-commercial use only

Gurobi 7.5.2 (win32, Python) logging started 08/08/18 17:39:02

Academic license - for non-commercial use only

Gurobi 7.5.2 (win32, Python) logging started 08/08/18 17:42:02

Academic license - for non-commercial use only

Gurobi 7.5.2 (win32, Python) logging started 08/08/18 17:45:24

Academic license - for non-commercial use only

Gurobi 7.5.2 (win32, Python) logging started 08/08/18 17:54:34

Academic license - for non-commercial use only

Gurobi 7.5.2 (win32, Python) logging started 08/08/18 18:56:54

Academic license - for non-commercial use only

Gurobi 7.5.2 (win32, Python) logging started 08/08/18 19:03:22

Academic license - for non-commercial use only

Gurobi 7.5.2 (win32, Python) logging started 08/08/18 19:06:50

Academic license - for non-commercial use only

Gurobi 7.5.2 (win32, Python) logging started 08/08/18 19:08:02

Academic license - for non-commercial use only

Gurobi 7.5.2 (win32, Python) logging started 08/08/18 19:08:48

Academic license - for non-commercial use only

Gurobi 7.5.2 (win32, Python) logging started 08/08/18 19:18:52

Academic license - for non-commercial use only

Gurobi 7.5.2 (win32, Python) logging started 08/08/18 19:21:16

Academic license - for non-commercial use only

Gurobi 7.5.2 (win32, Python) logging started 08/08/18 19:25:52

Academic license - for non-commercial use only

Gurobi 7.5.2 (win32, Python) logging started 08/08/18 19:29:40

Academic license - for non-commercial use only

Gurobi 7.5.2 (win32, Python) logging started 08/08/18 19:36:43

Academic license - for non-commercial use only

Gurobi 7.5.2 (win32, Python) logging started 08/08/18 19:37:22

Academic license - for non-commercial use only

Gurobi 7.5.2 (win32, Python) logging started 08/08/18 19:58:36

Academic license - for non-commercial use only

Gurobi 7.5.2 (win32, Python) logging started 08/08/18 19:59:57

Academic license - for non-commercial use only

Gurobi 7.5.2 (win32, Python) logging started 08/08/18 22:34:42

Academic license - for non-commercial use only

Gurobi 7.5.2 (win32, Python) logging started 08/08/18 22:50:50

Academic license - for non-commercial use only

Gurobi 7.5.2 (win32, Python) logging started 08/08/18 22:52:24

Academic license - for non-commercial use only

Gurobi 7.5.2 (win32, Python) logging started 08/08/18 22:55:07

Academic license - for non-commercial use only

Gurobi 7.5.2 (win32, Python) logging started 08/08/18 23:08:02

Academic license - for non-commercial use only

Gurobi 7.5.2 (win32, Python) logging started 08/08/18 23:12:42

Academic license - for non-commercial use only

Gurobi 7.5.2 (win32, Python) logging started 08/08/18 23:14:37

Academic license - for non-commercial use only

Gurobi 7.5.2 (win32, Python) logging started 08/08/18 23:18:51

Academic license - for non-commercial use only

Gurobi 7.5.2 (win32, Python) logging started 08/08/18 23:21:07

Academic license - for non-commercial use only

Gurobi 7.5.2 (win32, Python) logging started 08/08/18 23:44:18

Academic license - for non-commercial use only

Gurobi 7.5.2 (win32, Python) logging started 08/08/18 23:45:28

Academic license - for non-commercial use only

Gurobi 7.5.2 (win32, Python) logging started 08/08/18 23:50:30

Academic license - for non-commercial use only

Gurobi 7.5.2 (win32, Python) logging started 08/08/18 23:50:56

Academic license - for non-commercial use only

Gurobi 7.5.2 (win32, Python) logging started 08/08/18 23:52:41

Academic license - for non-commercial use only

Gurobi 7.5.2 (win32, Python) logging started 08/08/18 23:55:18

Academic license - for non-commercial use only

Gurobi 7.5.2 (win64, Python) logging started 08/09/18 03:33:41

Academic license - for non-commercial use only
